c A SAT instance generated from a 3-CNF formula that had 21 clauses and 7 variables
p cnf 7 21
-5 -3 1 0
5 7 1 0
5 -7 -2 0
3 4 6 0
-1 7 5 0
-4 -1 6 0
-1 -4 -6 0
6 -5 -2 0
-4 1 -3 0
-3 -7 -1 0
-2 -3 -5 0
6 -3 -2 0
-5 -2 6 0
4 -2 -7 0
2 1 6 0
-6 -5 -1 0
-7 4 2 0
6 2 -5 0
3 -2 -6 0
3 -1 2 0
-2 -7 -1 0
